
%FILE DATA:	Soccer Computational Problem for MiniZinc Models	%
%AUTHOR:	Jack Wall	%
%CONTACT:  	116397063@umail.ucc.ie			%
%LAST UPDATE:	03/16/2020, 13:59:12						%
%DESCRIPTION: 	168 games played with 14 games left				%


n=14; %number of teams

%Games to play
games=[|1,11|12,2|5,4|2,6|13,9|5,12|14,5|4,5|5,8|1,14|4,13|2,13|11,10|6,2|];

%Initial points
iPoints=[18,24,31,38,32,27,35,27,38,48,42,27,22,39];

%POSITION CONSTRAINTS
% [|teamID, operator, position|...]
% operators index:
%  1 for =  operator
%  2 for >  operator
%  3 for >= operator
%  4 for <  operator
%  5 for <= operator
positionConstraints=[|10,5,1|14,5,2|11,2,2|];